data/solutions/recovery/degenerate/intermediate/binding/degenerate_intermediate_instance38/71.sol
Elapsed time: 0.04
Upper bound: 440482.0
Planning weighted value: 28648078662.0
C[0]=440482.0
C[1]=436711.0
C[2]=435071.0
C[3]=415268.0
C[4]=410972.0
C[5]=405514.0
C[6]=385328.0
C[7]=214141.0
C[8]=187324.0
C[9]=176279.0
C[10]=172370.0
C[11]=58533.0
C[12]=46425.0
C[13]=0.0
C[14]=0.0
C[15]=0.0
y[0]=0
y[1]=3
y[2]=10
y[3]=11
y[4]=4
y[5]=7
y[6]=6
y[7]=0
y[8]=8
y[9]=2
y[10]=11
y[11]=7
y[12]=5
y[13]=9
y[14]=0
y[15]=6
y[16]=9
y[17]=5
y[18]=0
y[19]=8
y[20]=6
y[21]=6
y[22]=2
y[23]=2
y[24]=10
y[25]=3
y[26]=5
y[27]=1
y[28]=4
y[29]=0
y[30]=7
y[31]=8
y[32]=4
y[33]=5
y[34]=5
y[35]=4
y[36]=12
y[37]=4
y[38]=4
y[39]=1
y[40]=2
y[41]=10
y[42]=2
y[43]=1
y[44]=9
y[45]=3
y[46]=1
y[47]=3
y[48]=4
y[49]=4
y[50]=4
y[51]=6
y[52]=0
y[53]=5
y[54]=2
y[55]=1
y[56]=0
y[57]=6
y[58]=1
y[59]=0
y[60]=4
y[61]=3
y[62]=2
y[63]=5
y[64]=8
y[65]=3
