data/solutions/recovery/degenerate/intermediate/binding/degenerate_intermediate_instance38/71.log

Log started (V12.6.3.0) Sun Apr 22 12:38:26 2018

New value for default parallel thread count: 1

Problem '/tmp/tmpUSq8ON.pyomo.lp' read.
Read time = 0.01 sec. (0.64 ticks)

Problem name         : /tmp/tmpUSq8ON.pyomo.lp
Objective sense      : Minimize
Variables            :    1074  [Nneg: 1,  Binary: 1056,  General Integer: 17]
Objective nonzeros   :       1
Linear constraints   :     168  [Less: 82,  Equal: 86]
  Nonzeros           :   44913
  RHS nonzeros       :      67

Variables            : Min LB: 0.000000         Max UB: 1.000000       
Objective nonzeros   : Min   : 1.000000         Max   : 1.000000       
Linear constraints   :
  Nonzeros           : Min   : 1.000000         Max   : 117484.0       
  RHS nonzeros       : Min   : 1.000000         Max   : 1.000000       
Tried aggregator 2 times.
MIP Presolve eliminated 120 rows and 774 columns.
Aggregator did 13 substitutions.
Reduced MIP has 35 rows, 287 columns, and 585 nonzeros.
Reduced MIP has 286 binaries, 1 generals, 0 SOSs, and 0 indicators.
Presolve time = 0.00 sec. (3.96 ticks)
Found incumbent of value 1899847.000000 after 0.00 sec. (5.15 ticks)
Probing time = 0.00 sec. (0.32 ticks)
Tried aggregator 1 time.
Reduced MIP has 35 rows, 287 columns, and 585 nonzeros.
Reduced MIP has 286 binaries, 1 generals, 0 SOSs, and 0 indicators.
Presolve time = 0.00 sec. (0.52 ticks)
Probing time = 0.00 sec. (0.32 ticks)
Clique table members: 22.
MIP emphasis: balance optimality and feasibility.
MIP search method: dynamic search.
Parallel mode: none, using 1 thread.
Root relaxation solution time = 0.00 sec. (0.45 ticks)

        Nodes                                         Cuts/
   Node  Left     Objective  IInf  Best Integer    Best Bound    ItCnt     Gap

*     0+    0                      1899847.0000   440482.0000            76.81%
      0     0   440482.0000    12  1899847.0000   440482.0000       59   76.81%
*     0+    0                       440482.0000   440482.0000             0.00%
      0     0        cutoff         440482.0000   440482.0000       59    0.00%
Elapsed time = 0.01 sec. (7.20 ticks, tree = 0.01 MB, solutions = 2)

Root node processing (before b&c):
  Real time             =    0.01 sec. (7.24 ticks)
Sequential b&c:
  Real time             =    0.00 sec. (0.00 ticks)
                          ------------
Total (root+branch&cut) =    0.01 sec. (7.24 ticks)

Solution pool: 2 solutions saved.

MIP - Integer optimal solution:  Objective =  4.4048200000e+05
Solution time =    0.01 sec.  Iterations = 59  Nodes = 0
Deterministic time = 7.24 ticks  (1030.23 ticks/sec)


Incumbent solution written to file '/tmp/tmpMLzH5Q.cplex.sol'.
